param:	TIME:	Ts	Te:=
1	0   108
2	108   216
3	216   324
4	324   432
5	432   540
;
param:	NODE:	r	st	WS	WE:=
0	0	0	0	540
1	2340	26	11	363
2	1260	14	78	424
3	1911	21	17	346
4	324	4	17	326
5	945	10	70	405
6	720	8	34	361
7	993	11	49	391
8	1341	15	68	393
9	1929	21	25	355
10	1821	20	66	402
;
param: VEHICLE:	Ch	Lh	Ph	ch:=
1	10000	150	2.2384e-005	2.66374
2	15000	200	1.79961e-005	2.66374
3	10000	150	2.2384e-005	2.66374
;
param q_real:=2;
param	nth:=9;
param	nth1:=10;
param:	ARC:	D:=
1	8	52.240002
1	10	74.639999
1	3	78.730003
1	2	98.699997
1	4	135.100006
1	7	147.660004
1	6	158.869995
1	5	162.940002
1	9	186.089996
2	10	24.520000
2	3	52.830002
2	6	78.989998
2	7	93.780998
2	1	98.449997
2	8	116.199997
2	9	147.520004
2	5	163.440002
2	4	166.222000
3	10	42.599998
3	2	53.270000
3	7	70.260002
3	8	73.889999
3	1	78.660004
3	6	78.669998
3	9	112.400002
3	5	115.449997
3	4	116.430000
4	5	42.520000
4	8	90.129997
4	3	116.639999
4	9	118.311996
4	7	121.500999
4	1	134.830002
4	10	154.000000
4	6	156.231003
4	2	166.889999
5	4	42.869999
5	9	77.330002
5	7	105.912003
5	3	115.510002
5	8	119.800003
5	6	140.311996
5	10	155.970001
5	1	162.330002
5	2	163.309998
6	7	40.540001
6	3	78.779999
6	2	78.889999
6	9	87.489998
6	10	90.070000
6	5	139.701996
6	8	152.270004
6	4	156.460999
6	1	157.380005
7	6	40.369999
7	9	58.419998
7	3	70.059998
7	2	94.349998
7	10	99.550003
7	5	105.181999
7	4	121.511002
7	8	129.199997
7	1	147.710007
8	1	51.730000
8	3	73.699997
8	4	89.980003
8	10	93.620003
8	2	115.873001
8	5	119.820000
8	7	129.240005
8	6	152.080002
8	9	160.410004
9	7	58.529999
9	5	77.639999
9	6	87.199997
9	3	112.690002
9	4	117.459999
9	2	147.110001
9	10	151.149994
9	8	157.869995
9	1	186.350006
10	2	24.730000
10	3	42.509998
10	1	74.580002
10	6	89.879997
10	8	94.180000
10	7	99.169998
10	9	150.910004
10	4	153.990005
10	5	156.020004
0	3	34.849998
0	7	63.000000
0	8	68.209999
0	10	75.309998
0	5	80.870003
0	4	81.849998
0	2	84.849998
0	6	88.199997
0	9	94.949997
0	1	95.250000
3	0	34.840000
7	0	62.910000
8	0	67.980003
10	0	75.410004
5	0	80.919998
4	0	82.050003
2	0	84.690002
6	0	88.300003
9	0	94.879997
1	0	95.010002
;
param:	v:=
1	8	1	92
1	8	2	32
1	8	3	28
1	8	4	48
1	8	5	95
1	10	1	76
1	10	2	46
1	10	3	21
1	10	4	36
1	10	5	76
1	3	1	98
1	3	2	44
1	3	3	11
1	3	4	41
1	3	5	93
1	2	1	70
1	2	2	31
1	2	3	13
1	2	4	40
1	2	5	74
1	4	1	86
1	4	2	54
1	4	3	10
1	4	4	58
1	4	5	91
1	7	1	70
1	7	2	44
1	7	3	26
1	7	4	46
1	7	5	77
1	6	1	81
1	6	2	51
1	6	3	12
1	6	4	49
1	6	5	84
1	5	1	90
1	5	2	43
1	5	3	29
1	5	4	38
1	5	5	87
1	9	1	81
1	9	2	33
1	9	3	28
1	9	4	36
1	9	5	84
2	10	1	85
2	10	2	44
2	10	3	25
2	10	4	56
2	10	5	99
2	3	1	83
2	3	2	37
2	3	3	20
2	3	4	50
2	3	5	86
2	6	1	80
2	6	2	59
2	6	3	23
2	6	4	30
2	6	5	76
2	7	1	75
2	7	2	33
2	7	3	26
2	7	4	44
2	7	5	84
2	1	1	93
2	1	2	34
2	1	3	27
2	1	4	52
2	1	5	93
2	8	1	99
2	8	2	33
2	8	3	26
2	8	4	43
2	8	5	73
2	9	1	79
2	9	2	44
2	9	3	12
2	9	4	40
2	9	5	73
2	5	1	84
2	5	2	35
2	5	3	13
2	5	4	50
2	5	5	85
2	4	1	76
2	4	2	33
2	4	3	26
2	4	4	46
2	4	5	90
3	10	1	77
3	10	2	54
3	10	3	15
3	10	4	56
3	10	5	82
3	2	1	99
3	2	2	47
3	2	3	27
3	2	4	50
3	2	5	77
3	7	1	91
3	7	2	55
3	7	3	17
3	7	4	43
3	7	5	95
3	8	1	85
3	8	2	58
3	8	3	24
3	8	4	43
3	8	5	80
3	1	1	91
3	1	2	41
3	1	3	21
3	1	4	54
3	1	5	72
3	6	1	93
3	6	2	60
3	6	3	24
3	6	4	56
3	6	5	95
3	9	1	97
3	9	2	34
3	9	3	10
3	9	4	60
3	9	5	83
3	5	1	84
3	5	2	44
3	5	3	13
3	5	4	38
3	5	5	93
3	4	1	83
3	4	2	32
3	4	3	20
3	4	4	36
3	4	5	73
4	5	1	100
4	5	2	57
4	5	3	26
4	5	4	41
4	5	5	91
4	8	1	87
4	8	2	49
4	8	3	16
4	8	4	48
4	8	5	94
4	3	1	94
4	3	2	52
4	3	3	21
4	3	4	38
4	3	5	88
4	9	1	98
4	9	2	35
4	9	3	17
4	9	4	58
4	9	5	84
4	7	1	75
4	7	2	58
4	7	3	12
4	7	4	30
4	7	5	87
4	1	1	70
4	1	2	34
4	1	3	21
4	1	4	38
4	1	5	74
4	10	1	76
4	10	2	44
4	10	3	24
4	10	4	60
4	10	5	80
4	6	1	70
4	6	2	42
4	6	3	28
4	6	4	53
4	6	5	77
4	2	1	100
4	2	2	49
4	2	3	14
4	2	4	56
4	2	5	73
5	4	1	75
5	4	2	49
5	4	3	28
5	4	4	38
5	4	5	90
5	9	1	98
5	9	2	57
5	9	3	13
5	9	4	50
5	9	5	72
5	7	1	73
5	7	2	48
5	7	3	19
5	7	4	50
5	7	5	70
5	3	1	84
5	3	2	44
5	3	3	17
5	3	4	53
5	3	5	87
5	8	1	73
5	8	2	48
5	8	3	25
5	8	4	52
5	8	5	96
5	6	1	99
5	6	2	56
5	6	3	28
5	6	4	51
5	6	5	84
5	10	1	91
5	10	2	57
5	10	3	30
5	10	4	54
5	10	5	75
5	1	1	81
5	1	2	44
5	1	3	22
5	1	4	39
5	1	5	72
5	2	1	95
5	2	2	42
5	2	3	10
5	2	4	38
5	2	5	75
6	7	1	79
6	7	2	55
6	7	3	21
6	7	4	42
6	7	5	77
6	3	1	83
6	3	2	35
6	3	3	12
6	3	4	57
6	3	5	76
6	2	1	95
6	2	2	40
6	2	3	19
6	2	4	41
6	2	5	88
6	9	1	94
6	9	2	57
6	9	3	20
6	9	4	49
6	9	5	82
6	10	1	97
6	10	2	57
6	10	3	15
6	10	4	38
6	10	5	91
6	5	1	90
6	5	2	50
6	5	3	20
6	5	4	50
6	5	5	92
6	8	1	89
6	8	2	53
6	8	3	15
6	8	4	44
6	8	5	73
6	4	1	91
6	4	2	38
6	4	3	12
6	4	4	56
6	4	5	79
6	1	1	78
6	1	2	52
6	1	3	22
6	1	4	36
6	1	5	87
7	6	1	91
7	6	2	56
7	6	3	14
7	6	4	31
7	6	5	81
7	9	1	97
7	9	2	48
7	9	3	18
7	9	4	55
7	9	5	98
7	3	1	92
7	3	2	33
7	3	3	13
7	3	4	32
7	3	5	87
7	2	1	93
7	2	2	32
7	2	3	30
7	2	4	52
7	2	5	74
7	10	1	93
7	10	2	45
7	10	3	19
7	10	4	55
7	10	5	72
7	5	1	90
7	5	2	34
7	5	3	25
7	5	4	57
7	5	5	97
7	4	1	72
7	4	2	42
7	4	3	14
7	4	4	32
7	4	5	71
7	8	1	94
7	8	2	46
7	8	3	14
7	8	4	33
7	8	5	78
7	1	1	72
7	1	2	34
7	1	3	26
7	1	4	51
7	1	5	70
8	1	1	78
8	1	2	41
8	1	3	27
8	1	4	56
8	1	5	93
8	3	1	99
8	3	2	35
8	3	3	14
8	3	4	41
8	3	5	83
8	4	1	97
8	4	2	33
8	4	3	20
8	4	4	50
8	4	5	88
8	10	1	88
8	10	2	30
8	10	3	27
8	10	4	55
8	10	5	82
8	2	1	79
8	2	2	40
8	2	3	13
8	2	4	48
8	2	5	86
8	5	1	98
8	5	2	43
8	5	3	16
8	5	4	48
8	5	5	95
8	7	1	83
8	7	2	37
8	7	3	17
8	7	4	34
8	7	5	86
8	6	1	93
8	6	2	48
8	6	3	11
8	6	4	36
8	6	5	71
8	9	1	86
8	9	2	34
8	9	3	30
8	9	4	42
8	9	5	98
9	7	1	90
9	7	2	39
9	7	3	26
9	7	4	51
9	7	5	84
9	5	1	77
9	5	2	46
9	5	3	16
9	5	4	42
9	5	5	88
9	6	1	72
9	6	2	36
9	6	3	27
9	6	4	42
9	6	5	70
9	3	1	91
9	3	2	44
9	3	3	22
9	3	4	35
9	3	5	70
9	4	1	88
9	4	2	35
9	4	3	12
9	4	4	37
9	4	5	97
9	2	1	95
9	2	2	60
9	2	3	28
9	2	4	31
9	2	5	86
9	10	1	92
9	10	2	30
9	10	3	27
9	10	4	54
9	10	5	78
9	8	1	70
9	8	2	41
9	8	3	30
9	8	4	53
9	8	5	96
9	1	1	87
9	1	2	42
9	1	3	22
9	1	4	58
9	1	5	80
10	2	1	75
10	2	2	30
10	2	3	25
10	2	4	54
10	2	5	99
10	3	1	73
10	3	2	57
10	3	3	15
10	3	4	43
10	3	5	95
10	1	1	94
10	1	2	37
10	1	3	23
10	1	4	60
10	1	5	70
10	6	1	98
10	6	2	31
10	6	3	14
10	6	4	43
10	6	5	100
10	8	1	91
10	8	2	53
10	8	3	20
10	8	4	60
10	8	5	80
10	7	1	80
10	7	2	42
10	7	3	25
10	7	4	40
10	7	5	96
10	9	1	87
10	9	2	39
10	9	3	28
10	9	4	51
10	9	5	99
10	4	1	78
10	4	2	40
10	4	3	18
10	4	4	41
10	4	5	78
10	5	1	96
10	5	2	59
10	5	3	10
10	5	4	50
10	5	5	82
0	3	1	75
0	3	2	60
0	3	3	17
0	3	4	46
0	3	5	92
0	7	1	76
0	7	2	49
0	7	3	28
0	7	4	42
0	7	5	100
0	8	1	74
0	8	2	57
0	8	3	14
0	8	4	31
0	8	5	76
0	10	1	75
0	10	2	40
0	10	3	10
0	10	4	40
0	10	5	85
0	5	1	80
0	5	2	39
0	5	3	20
0	5	4	59
0	5	5	98
0	4	1	98
0	4	2	33
0	4	3	23
0	4	4	31
0	4	5	89
0	2	1	76
0	2	2	54
0	2	3	28
0	2	4	50
0	2	5	82
0	6	1	95
0	6	2	53
0	6	3	18
0	6	4	47
0	6	5	79
0	9	1	71
0	9	2	57
0	9	3	27
0	9	4	33
0	9	5	97
0	1	1	100
0	1	2	51
0	1	3	30
0	1	4	53
0	1	5	93
3	0	1	86
3	0	2	44
3	0	3	23
3	0	4	53
3	0	5	74
7	0	1	95
7	0	2	42
7	0	3	21
7	0	4	48
7	0	5	97
8	0	1	81
8	0	2	58
8	0	3	26
8	0	4	57
8	0	5	86
10	0	1	89
10	0	2	48
10	0	3	24
10	0	4	39
10	0	5	84
5	0	1	72
5	0	2	58
5	0	3	26
5	0	4	36
5	0	5	93
4	0	1	80
4	0	2	53
4	0	3	18
4	0	4	46
4	0	5	83
2	0	1	86
2	0	2	54
2	0	3	16
2	0	4	50
2	0	5	78
6	0	1	74
6	0	2	58
6	0	3	22
6	0	4	35
6	0	5	98
9	0	1	97
9	0	2	43
9	0	3	24
9	0	4	31
9	0	5	83
1	0	1	78
1	0	2	46
1	0	3	19
1	0	4	58
1	0	5	82
;
param:	g:=
1	8	1	1	0.510132
1	8	1	2	1.087298
1	8	2	1	0.246870
1	8	2	2	0.290921
1	8	3	1	0.252324
1	8	3	2	0.302739
1	8	4	1	0.266846
1	8	4	2	0.327669
1	8	5	1	0.534355
1	8	5	2	1.173866
1	10	1	1	0.396426
1	10	1	2	0.700458
1	10	2	1	0.261626
1	10	2	2	0.315953
1	10	3	1	0.280358
1	10	3	2	0.346196
1	10	4	1	0.246504
1	10	4	2	0.287741
1	10	5	1	0.396426
1	10	5	2	0.700458
1	3	1	1	0.559473
1	3	1	2	1.264864
1	3	2	1	0.257070
1	3	2	2	0.306247
1	3	3	1	0.424417
1	3	3	2	0.487653
1	3	4	1	0.251580
1	3	4	2	0.295478
1	3	5	1	0.518107
1	3	5	2	1.115662
1	2	1	1	0.360770
1	2	1	2	0.587924
1	2	2	1	0.247702
1	2	2	2	0.293050
1	2	3	1	0.375359
1	2	3	2	0.446007
1	2	4	1	0.250135
1	2	4	2	0.292905
1	2	5	1	0.384103
1	2	5	2	0.660973
1	4	1	1	0.464402
1	4	1	2	0.927456
1	4	2	1	0.286163
1	4	2	2	0.374817
1	4	3	1	0.456768
1	4	3	2	0.513825
1	4	4	1	0.301833
1	4	4	2	0.416205
1	4	5	1	0.502258
1	4	5	2	1.059427
1	7	1	1	0.360770
1	7	1	2	0.587924
1	7	2	1	0.257070
1	7	2	2	0.306247
1	7	3	1	0.257483
1	7	3	2	0.312044
1	7	4	1	0.261626
1	7	4	2	0.315953
1	7	5	1	0.402749
1	7	5	2	0.720940
1	6	1	1	0.429105
1	6	1	2	0.807797
1	6	2	1	0.275847
1	6	2	2	0.348998
1	6	3	1	0.397708
1	6	3	2	0.465383
1	6	4	1	0.269695
1	6	4	2	0.334278
1	6	5	1	0.449973
1	6	5	2	0.878115
1	5	1	1	0.494484
1	5	1	2	1.032048
1	5	2	1	0.255055
1	5	2	2	0.302151
1	5	3	1	0.250401
1	5	3	2	0.298951
1	5	4	1	0.247870
1	5	4	2	0.289292
1	5	5	1	0.471770
1	5	5	2	0.952865
1	9	1	1	0.429105
1	9	1	2	0.807797
1	9	2	1	0.246353
1	9	2	2	0.289331
1	9	3	1	0.252324
1	9	3	2	0.302739
1	9	4	1	0.246504
1	9	4	2	0.287741
1	9	5	1	0.449973
1	9	5	2	0.878115
2	10	1	1	0.457136
2	10	1	2	0.902539
2	10	2	1	0.257070
2	10	2	2	0.306247
2	10	3	1	0.260803
2	10	3	2	0.317588
2	10	4	1	0.293733
2	10	4	2	0.394518
2	10	5	1	0.568043
2	10	5	2	1.296180
2	3	1	1	0.442913
2	3	1	2	0.854183
2	3	2	1	0.247069
2	3	2	2	0.288257
2	3	3	1	0.287219
2	3	3	2	0.355115
2	3	4	1	0.272696
2	3	4	2	0.341388
2	3	5	1	0.464402
2	3	5	2	0.927456
2	6	1	1	0.422358
2	6	1	2	0.785344
2	6	2	1	0.306076
2	6	2	2	0.427793
2	6	3	1	0.269185
2	6	3	2	0.330552
2	6	4	1	0.248870
2	6	4	2	0.295725
2	6	5	1	0.396426
2	6	5	2	0.700458
2	7	1	1	0.390210
2	7	1	2	0.680469
2	7	2	1	0.246353
2	7	2	2	0.289331
2	7	3	1	0.257483
2	7	3	2	0.312044
2	7	4	1	0.257070
2	7	4	2	0.306247
2	7	5	1	0.449973
2	7	5	2	0.878115
2	1	1	1	0.518107
2	1	1	2	1.115662
2	1	2	1	0.246131
2	1	2	2	0.288274
2	1	3	1	0.254672
2	1	3	2	0.307099
2	1	4	1	0.279143
2	1	4	2	0.357106
2	1	5	1	0.518107
2	1	5	2	1.115662
2	8	1	1	0.568043
2	8	1	2	1.296180
2	8	2	1	0.246353
2	8	2	2	0.289331
2	8	3	1	0.257483
2	8	3	2	0.312044
2	8	4	1	0.255055
2	8	4	2	0.302151
2	8	5	1	0.378104
2	8	5	2	0.641971
2	9	1	1	0.415716
2	9	1	2	0.763383
2	9	2	1	0.257070
2	9	2	2	0.306247
2	9	3	1	0.397708
2	9	3	2	0.465383
2	9	4	1	0.250135
2	9	4	2	0.292905
2	9	5	1	0.378104
2	9	5	2	0.641971
2	5	1	1	0.449973
2	5	1	2	0.878115
2	5	2	1	0.246187
2	5	2	2	0.287745
2	5	3	1	0.375359
2	5	3	2	0.446007
2	5	4	1	0.272696
2	5	4	2	0.341388
2	5	5	1	0.457136
2	5	5	2	0.902539
2	4	1	1	0.396426
2	4	1	2	0.700458
2	4	2	1	0.246353
2	4	2	2	0.289331
2	4	3	1	0.257483
2	4	3	2	0.312044
2	4	4	1	0.261626
2	4	4	2	0.315953
2	4	5	1	0.494484
2	4	5	2	1.032048
3	10	1	1	0.402749
3	10	1	2	0.720940
3	10	2	1	0.286163
3	10	2	2	0.374817
3	10	3	1	0.340328
3	10	3	2	0.413505
3	10	4	1	0.293733
3	10	4	2	0.394518
3	10	5	1	0.435957
3	10	5	2	0.830744
3	2	1	1	0.568043
3	2	1	2	1.296180
3	2	2	1	0.264155
3	2	2	2	0.321560
3	2	3	1	0.254672
3	2	3	2	0.307099
3	2	4	1	0.272696
3	2	4	2	0.341388
3	2	5	1	0.402749
3	2	5	2	0.720940
3	7	1	1	0.502258
3	7	1	2	1.059427
3	7	2	1	0.289880
3	7	2	2	0.384419
3	7	3	1	0.314502
3	7	3	2	0.386980
3	7	4	1	0.255055
3	7	4	2	0.302151
3	7	5	1	0.534355
3	7	5	2	1.173866
3	8	1	1	0.457136
3	8	1	2	0.902539
3	8	2	1	0.301833
3	8	2	2	0.416205
3	8	3	1	0.264683
3	8	3	2	0.323750
3	8	4	1	0.255055
3	8	4	2	0.302151
3	8	5	1	0.422358
3	8	5	2	0.785344
3	1	1	1	0.502258
3	1	1	2	1.059427
3	1	2	1	0.251580
3	1	2	2	0.295478
3	1	3	1	0.280358
3	1	3	2	0.346196
3	1	4	1	0.286163
3	1	4	2	0.374817
3	1	5	1	0.372215
3	1	5	2	0.623462
3	6	1	1	0.518107
3	6	1	2	1.115662
3	6	2	1	0.310446
3	6	2	2	0.439877
3	6	3	1	0.264683
3	6	3	2	0.323750
3	6	4	1	0.293733
3	6	4	2	0.394518
3	6	5	1	0.534355
3	6	5	2	1.173866
3	9	1	1	0.551002
3	9	1	2	1.234039
3	9	2	1	0.246131
3	9	2	2	0.288274
3	9	3	1	0.456768
3	9	3	2	0.513825
3	9	4	1	0.310446
3	9	4	2	0.439877
3	9	5	1	0.442913
3	9	5	2	0.854183
3	5	1	1	0.449973
3	5	1	2	0.878115
3	5	2	1	0.257070
3	5	2	2	0.306247
3	5	3	1	0.375359
3	5	3	2	0.446007
3	5	4	1	0.247870
3	5	4	2	0.289292
3	5	5	1	0.518107
3	5	5	2	1.115662
3	4	1	1	0.442913
3	4	1	2	0.854183
3	4	2	1	0.246870
3	4	2	2	0.290921
3	4	3	1	0.287219
3	4	3	2	0.355115
3	4	4	1	0.246504
3	4	4	2	0.287741
3	4	5	1	0.378104
3	4	5	2	0.641971
4	5	1	1	0.576712
4	5	1	2	1.327989
4	5	2	1	0.297717
4	5	2	2	0.405114
4	5	3	1	0.257483
4	5	3	2	0.312044
4	5	4	1	0.251580
4	5	4	2	0.295478
4	5	5	1	0.502258
4	5	5	2	1.059427
4	8	1	1	0.471770
4	8	1	2	0.952865
4	8	2	1	0.269695
4	8	2	2	0.334278
4	8	3	1	0.326472
4	8	3	2	0.399619
4	8	4	1	0.266846
4	8	4	2	0.327669
4	8	5	1	0.526181
4	8	5	2	1.144518
4	3	1	1	0.526181
4	3	1	2	1.144518
4	3	2	1	0.279143
4	3	2	2	0.357106
4	3	3	1	0.280358
4	3	3	2	0.346196
4	3	4	1	0.247870
4	3	4	2	0.289292
4	3	5	1	0.479240
4	3	5	2	0.978767
4	9	1	1	0.559473
4	9	1	2	1.264864
4	9	2	1	0.246187
4	9	2	2	0.287745
4	9	3	1	0.314502
4	9	3	2	0.386980
4	9	4	1	0.301833
4	9	4	2	0.416205
4	9	5	1	0.449973
4	9	5	2	0.878115
4	7	1	1	0.390210
4	7	1	2	0.680469
4	7	2	1	0.301833
4	7	2	2	0.416205
4	7	3	1	0.397708
4	7	3	2	0.465383
4	7	4	1	0.248870
4	7	4	2	0.295725
4	7	5	1	0.471770
4	7	5	2	0.952865
4	1	1	1	0.360770
4	1	1	2	0.587924
4	1	2	1	0.246131
4	1	2	2	0.288274
4	1	3	1	0.280358
4	1	3	2	0.346196
4	1	4	1	0.247870
4	1	4	2	0.289292
4	1	5	1	0.384103
4	1	5	2	0.660973
4	10	1	1	0.396426
4	10	1	2	0.700458
4	10	2	1	0.257070
4	10	2	2	0.306247
4	10	3	1	0.264683
4	10	3	2	0.323750
4	10	4	1	0.310446
4	10	4	2	0.439877
4	10	5	1	0.422358
4	10	5	2	0.785344
4	6	1	1	0.360770
4	6	1	2	0.587924
4	6	2	1	0.253223
4	6	2	2	0.298561
4	6	3	1	0.252324
4	6	3	2	0.302739
4	6	4	1	0.282583
4	6	4	2	0.365713
4	6	5	1	0.402749
4	6	5	2	0.720940
4	2	1	1	0.576712
4	2	1	2	1.327989
4	2	2	1	0.269695
4	2	2	2	0.334278
4	2	3	1	0.356456
4	2	3	2	0.428864
4	2	4	1	0.293733
4	2	4	2	0.394518
4	2	5	1	0.378104
4	2	5	2	0.641971
5	4	1	1	0.390210
5	4	1	2	0.680469
5	4	2	1	0.269695
5	4	2	2	0.334278
5	4	3	1	0.252324
5	4	3	2	0.302739
5	4	4	1	0.247870
5	4	4	2	0.289292
5	4	5	1	0.494484
5	4	5	2	1.032048
5	9	1	1	0.559473
5	9	1	2	1.264864
5	9	2	1	0.297717
5	9	2	2	0.405114
5	9	3	1	0.375359
5	9	3	2	0.446007
5	9	4	1	0.272696
5	9	4	2	0.341388
5	9	5	1	0.372215
5	9	5	2	0.623462
5	7	1	1	0.378104
5	7	1	2	0.641971
5	7	2	1	0.266846
5	7	2	2	0.327669
5	7	3	1	0.295088
5	7	3	2	0.364835
5	7	4	1	0.272696
5	7	4	2	0.341388
5	7	5	1	0.360770
5	7	5	2	0.587924
5	3	1	1	0.449973
5	3	1	2	0.878115
5	3	2	1	0.257070
5	3	2	2	0.306247
5	3	3	1	0.314502
5	3	3	2	0.386980
5	3	4	1	0.282583
5	3	4	2	0.365713
5	3	5	1	0.471770
5	3	5	2	0.952865
5	8	1	1	0.378104
5	8	1	2	0.641971
5	8	2	1	0.266846
5	8	2	2	0.327669
5	8	3	1	0.260803
5	8	3	2	0.317588
5	8	4	1	0.279143
5	8	4	2	0.357106
5	8	5	1	0.542629
5	8	5	2	1.203706
5	6	1	1	0.568043
5	6	1	2	1.296180
5	6	2	1	0.293733
5	6	2	2	0.394518
5	6	3	1	0.252324
5	6	3	2	0.302739
5	6	4	1	0.275847
5	6	4	2	0.348998
5	6	5	1	0.449973
5	6	5	2	0.878115
5	10	1	1	0.502258
5	10	1	2	1.059427
5	10	2	1	0.297717
5	10	2	2	0.405114
5	10	3	1	0.248870
5	10	3	2	0.295725
5	10	4	1	0.286163
5	10	4	2	0.374817
5	10	5	1	0.390210
5	10	5	2	0.680469
5	1	1	1	0.429105
5	1	1	2	0.807797
5	1	2	1	0.257070
5	1	2	2	0.306247
5	1	3	1	0.274382
5	1	3	2	0.338023
5	1	4	1	0.248895
5	1	4	2	0.290842
5	1	5	1	0.372215
5	1	5	2	0.623462
5	2	1	1	0.534355
5	2	1	2	1.173866
5	2	2	1	0.253223
5	2	2	2	0.298561
5	2	3	1	0.456768
5	2	3	2	0.513825
5	2	4	1	0.247870
5	2	4	2	0.289292
5	2	5	1	0.390210
5	2	5	2	0.680469
6	7	1	1	0.415716
6	7	1	2	0.763383
6	7	2	1	0.289880
6	7	2	2	0.384419
6	7	3	1	0.280358
6	7	3	2	0.346196
6	7	4	1	0.253223
6	7	4	2	0.298561
6	7	5	1	0.402749
6	7	5	2	0.720940
6	3	1	1	0.442913
6	3	1	2	0.854183
6	3	2	1	0.246187
6	3	2	2	0.287745
6	3	3	1	0.397708
6	3	3	2	0.465383
6	3	4	1	0.297717
6	3	4	2	0.405114
6	3	5	1	0.396426
6	3	5	2	0.700458
6	2	1	1	0.534355
6	2	1	2	1.173866
6	2	2	1	0.250135
6	2	2	2	0.292905
6	2	3	1	0.295088
6	2	3	2	0.364835
6	2	4	1	0.251580
6	2	4	2	0.295478
6	2	5	1	0.479240
6	2	5	2	0.978767
6	9	1	1	0.526181
6	9	1	2	1.144518
6	9	2	1	0.297717
6	9	2	2	0.405114
6	9	3	1	0.287219
6	9	3	2	0.355115
6	9	4	1	0.269695
6	9	4	2	0.334278
6	9	5	1	0.435957
6	9	5	2	0.830744
6	10	1	1	0.551002
6	10	1	2	1.234039
6	10	2	1	0.297717
6	10	2	2	0.405114
6	10	3	1	0.340328
6	10	3	2	0.413505
6	10	4	1	0.247870
6	10	4	2	0.289292
6	10	5	1	0.502258
6	10	5	2	1.059427
6	5	1	1	0.494484
6	5	1	2	1.032048
6	5	2	1	0.272696
6	5	2	2	0.341388
6	5	3	1	0.287219
6	5	3	2	0.355115
6	5	4	1	0.272696
6	5	4	2	0.341388
6	5	5	1	0.510132
6	5	5	2	1.087298
6	8	1	1	0.486811
6	8	1	2	1.005161
6	8	2	1	0.282583
6	8	2	2	0.365713
6	8	3	1	0.340328
6	8	3	2	0.413505
6	8	4	1	0.257070
6	8	4	2	0.306247
6	8	5	1	0.378104
6	8	5	2	0.641971
6	4	1	1	0.502258
6	4	1	2	1.059427
6	4	2	1	0.247870
6	4	2	2	0.289292
6	4	3	1	0.397708
6	4	3	2	0.465383
6	4	4	1	0.293733
6	4	4	2	0.394518
6	4	5	1	0.415716
6	4	5	2	0.763383
6	1	1	1	0.409180
6	1	1	2	0.741915
6	1	2	1	0.279143
6	1	2	2	0.357106
6	1	3	1	0.274382
6	1	3	2	0.338023
6	1	4	1	0.246504
6	1	4	2	0.287741
6	1	5	1	0.471770
6	1	5	2	0.952865
7	6	1	1	0.502258
7	6	1	2	1.059427
7	6	2	1	0.293733
7	6	2	2	0.394518
7	6	3	1	0.356456
7	6	3	2	0.428864
7	6	4	1	0.247702
7	6	4	2	0.293050
7	6	5	1	0.429105
7	6	5	2	0.807797
7	9	1	1	0.551002
7	9	1	2	1.234039
7	9	2	1	0.266846
7	9	2	2	0.327669
7	9	3	1	0.304119
7	9	3	2	0.375426
7	9	4	1	0.289880
7	9	4	2	0.384419
7	9	5	1	0.559473
7	9	5	2	1.264864
7	3	1	1	0.510132
7	3	1	2	1.087298
7	3	2	1	0.246353
7	3	2	2	0.289331
7	3	3	1	0.375359
7	3	3	2	0.446007
7	3	4	1	0.246870
7	3	4	2	0.290921
7	3	5	1	0.471770
7	3	5	2	0.952865
7	2	1	1	0.518107
7	2	1	2	1.115662
7	2	2	1	0.246870
7	2	2	2	0.290921
7	2	3	1	0.248870
7	2	3	2	0.295725
7	2	4	1	0.279143
7	2	4	2	0.357106
7	2	5	1	0.384103
7	2	5	2	0.660973
7	10	1	1	0.518107
7	10	1	2	1.115662
7	10	2	1	0.259262
7	10	2	2	0.310848
7	10	3	1	0.295088
7	10	3	2	0.364835
7	10	4	1	0.289880
7	10	4	2	0.384419
7	10	5	1	0.372215
7	10	5	2	0.623462
7	5	1	1	0.494484
7	5	1	2	1.032048
7	5	2	1	0.246131
7	5	2	2	0.288274
7	5	3	1	0.260803
7	5	3	2	0.317588
7	5	4	1	0.297717
7	5	4	2	0.405114
7	5	5	1	0.551002
7	5	5	2	1.234039
7	4	1	1	0.372215
7	4	1	2	0.623462
7	4	2	1	0.253223
7	4	2	2	0.298561
7	4	3	1	0.356456
7	4	3	2	0.428864
7	4	4	1	0.246870
7	4	4	2	0.290921
7	4	5	1	0.366437
7	4	5	2	0.605446
7	8	1	1	0.526181
7	8	1	2	1.144518
7	8	2	1	0.261626
7	8	2	2	0.315953
7	8	3	1	0.356456
7	8	3	2	0.428864
7	8	4	1	0.246353
7	8	4	2	0.289331
7	8	5	1	0.409180
7	8	5	2	0.741915
7	1	1	1	0.372215
7	1	1	2	0.623462
7	1	2	1	0.246131
7	1	2	2	0.288274
7	1	3	1	0.257483
7	1	3	2	0.312044
7	1	4	1	0.275847
7	1	4	2	0.348998
7	1	5	1	0.360770
7	1	5	2	0.587924
8	1	1	1	0.409180
8	1	1	2	0.741915
8	1	2	1	0.251580
8	1	2	2	0.295478
8	1	3	1	0.254672
8	1	3	2	0.307099
8	1	4	1	0.293733
8	1	4	2	0.394518
8	1	5	1	0.518107
8	1	5	2	1.115662
8	3	1	1	0.568043
8	3	1	2	1.296180
8	3	2	1	0.246187
8	3	2	2	0.287745
8	3	3	1	0.356456
8	3	3	2	0.428864
8	3	4	1	0.251580
8	3	4	2	0.295478
8	3	5	1	0.442913
8	3	5	2	0.854183
8	4	1	1	0.551002
8	4	1	2	1.234039
8	4	2	1	0.246353
8	4	2	2	0.289331
8	4	3	1	0.287219
8	4	3	2	0.355115
8	4	4	1	0.272696
8	4	4	2	0.341388
8	4	5	1	0.479240
8	4	5	2	0.978767
8	10	1	1	0.479240
8	10	1	2	0.978767
8	10	2	1	0.248870
8	10	2	2	0.295725
8	10	3	1	0.254672
8	10	3	2	0.307099
8	10	4	1	0.289880
8	10	4	2	0.384419
8	10	5	1	0.435957
8	10	5	2	0.830744
8	2	1	1	0.415716
8	2	1	2	0.763383
8	2	2	1	0.250135
8	2	2	2	0.292905
8	2	3	1	0.375359
8	2	3	2	0.446007
8	2	4	1	0.266846
8	2	4	2	0.327669
8	2	5	1	0.464402
8	2	5	2	0.927456
8	5	1	1	0.559473
8	5	1	2	1.264864
8	5	2	1	0.255055
8	5	2	2	0.302151
8	5	3	1	0.326472
8	5	3	2	0.399619
8	5	4	1	0.266846
8	5	4	2	0.327669
8	5	5	1	0.534355
8	5	5	2	1.173866
8	7	1	1	0.442913
8	7	1	2	0.854183
8	7	2	1	0.247069
8	7	2	2	0.288257
8	7	3	1	0.314502
8	7	3	2	0.386980
8	7	4	1	0.246131
8	7	4	2	0.288274
8	7	5	1	0.464402
8	7	5	2	0.927456
8	6	1	1	0.518107
8	6	1	2	1.115662
8	6	2	1	0.266846
8	6	2	2	0.327669
8	6	3	1	0.424417
8	6	3	2	0.487653
8	6	4	1	0.246504
8	6	4	2	0.287741
8	6	5	1	0.366437
8	6	5	2	0.605446
8	9	1	1	0.464402
8	9	1	2	0.927456
8	9	2	1	0.246131
8	9	2	2	0.288274
8	9	3	1	0.248870
8	9	3	2	0.295725
8	9	4	1	0.253223
8	9	4	2	0.298561
8	9	5	1	0.559473
8	9	5	2	1.264864
9	7	1	1	0.494484
9	7	1	2	1.032048
9	7	2	1	0.248895
9	7	2	2	0.290842
9	7	3	1	0.257483
9	7	3	2	0.312044
9	7	4	1	0.275847
9	7	4	2	0.348998
9	7	5	1	0.449973
9	7	5	2	0.878115
9	5	1	1	0.402749
9	5	1	2	0.720940
9	5	2	1	0.261626
9	5	2	2	0.315953
9	5	3	1	0.326472
9	5	3	2	0.399619
9	5	4	1	0.253223
9	5	4	2	0.298561
9	5	5	1	0.479240
9	5	5	2	0.978767
9	6	1	1	0.372215
9	6	1	2	0.623462
9	6	2	1	0.246504
9	6	2	2	0.287741
9	6	3	1	0.254672
9	6	3	2	0.307099
9	6	4	1	0.253223
9	6	4	2	0.298561
9	6	5	1	0.360770
9	6	5	2	0.587924
9	3	1	1	0.502258
9	3	1	2	1.059427
9	3	2	1	0.257070
9	3	2	2	0.306247
9	3	3	1	0.274382
9	3	3	2	0.338023
9	3	4	1	0.246187
9	3	4	2	0.287745
9	3	5	1	0.360770
9	3	5	2	0.587924
9	4	1	1	0.479240
9	4	1	2	0.978767
9	4	2	1	0.246187
9	4	2	2	0.287745
9	4	3	1	0.397708
9	4	3	2	0.465383
9	4	4	1	0.247069
9	4	4	2	0.288257
9	4	5	1	0.551002
9	4	5	2	1.234039
9	2	1	1	0.534355
9	2	1	2	1.173866
9	2	2	1	0.310446
9	2	2	2	0.439877
9	2	3	1	0.252324
9	2	3	2	0.302739
9	2	4	1	0.247702
9	2	4	2	0.293050
9	2	5	1	0.464402
9	2	5	2	0.927456
9	10	1	1	0.510132
9	10	1	2	1.087298
9	10	2	1	0.248870
9	10	2	2	0.295725
9	10	3	1	0.254672
9	10	3	2	0.307099
9	10	4	1	0.286163
9	10	4	2	0.374817
9	10	5	1	0.409180
9	10	5	2	0.741915
9	8	1	1	0.360770
9	8	1	2	0.587924
9	8	2	1	0.251580
9	8	2	2	0.295478
9	8	3	1	0.248870
9	8	3	2	0.295725
9	8	4	1	0.282583
9	8	4	2	0.365713
9	8	5	1	0.542629
9	8	5	2	1.203706
9	1	1	1	0.471770
9	1	1	2	0.952865
9	1	2	1	0.253223
9	1	2	2	0.298561
9	1	3	1	0.274382
9	1	3	2	0.338023
9	1	4	1	0.301833
9	1	4	2	0.416205
9	1	5	1	0.422358
9	1	5	2	0.785344
10	2	1	1	0.390210
10	2	1	2	0.680469
10	2	2	1	0.248870
10	2	2	2	0.295725
10	2	3	1	0.260803
10	2	3	2	0.317588
10	2	4	1	0.286163
10	2	4	2	0.374817
10	2	5	1	0.568043
10	2	5	2	1.296180
10	3	1	1	0.378104
10	3	1	2	0.641971
10	3	2	1	0.297717
10	3	2	2	0.405114
10	3	3	1	0.340328
10	3	3	2	0.413505
10	3	4	1	0.255055
10	3	4	2	0.302151
10	3	5	1	0.534355
10	3	5	2	1.173866
10	1	1	1	0.526181
10	1	1	2	1.144518
10	1	2	1	0.247069
10	1	2	2	0.288257
10	1	3	1	0.269185
10	1	3	2	0.330552
10	1	4	1	0.310446
10	1	4	2	0.439877
10	1	5	1	0.360770
10	1	5	2	0.587924
10	6	1	1	0.559473
10	6	1	2	1.264864
10	6	2	1	0.247702
10	6	2	2	0.293050
10	6	3	1	0.356456
10	6	3	2	0.428864
10	6	4	1	0.255055
10	6	4	2	0.302151
10	6	5	1	0.576712
10	6	5	2	1.327989
10	8	1	1	0.502258
10	8	1	2	1.059427
10	8	2	1	0.282583
10	8	2	2	0.365713
10	8	3	1	0.287219
10	8	3	2	0.355115
10	8	4	1	0.310446
10	8	4	2	0.439877
10	8	5	1	0.422358
10	8	5	2	0.785344
10	7	1	1	0.422358
10	7	1	2	0.785344
10	7	2	1	0.253223
10	7	2	2	0.298561
10	7	3	1	0.260803
10	7	3	2	0.317588
10	7	4	1	0.250135
10	7	4	2	0.292905
10	7	5	1	0.542629
10	7	5	2	1.203706
10	9	1	1	0.471770
10	9	1	2	0.952865
10	9	2	1	0.248895
10	9	2	2	0.290842
10	9	3	1	0.252324
10	9	3	2	0.302739
10	9	4	1	0.275847
10	9	4	2	0.348998
10	9	5	1	0.568043
10	9	5	2	1.296180
10	4	1	1	0.409180
10	4	1	2	0.741915
10	4	2	1	0.250135
10	4	2	2	0.292905
10	4	3	1	0.304119
10	4	3	2	0.375426
10	4	4	1	0.251580
10	4	4	2	0.295478
10	4	5	1	0.409180
10	4	5	2	0.741915
10	5	1	1	0.542629
10	5	1	2	1.203706
10	5	2	1	0.306076
10	5	2	2	0.427793
10	5	3	1	0.456768
10	5	3	2	0.513825
10	5	4	1	0.272696
10	5	4	2	0.341388
10	5	5	1	0.435957
10	5	5	2	0.830744
0	3	1	1	0.390210
0	3	1	2	0.680469
0	3	2	1	0.310446
0	3	2	2	0.439877
0	3	3	1	0.314502
0	3	3	2	0.386980
0	3	4	1	0.261626
0	3	4	2	0.315953
0	3	5	1	0.510132
0	3	5	2	1.087298
0	7	1	1	0.396426
0	7	1	2	0.700458
0	7	2	1	0.269695
0	7	2	2	0.334278
0	7	3	1	0.252324
0	7	3	2	0.302739
0	7	4	1	0.253223
0	7	4	2	0.298561
0	7	5	1	0.576712
0	7	5	2	1.327989
0	8	1	1	0.384103
0	8	1	2	0.660973
0	8	2	1	0.297717
0	8	2	2	0.405114
0	8	3	1	0.356456
0	8	3	2	0.428864
0	8	4	1	0.247702
0	8	4	2	0.293050
0	8	5	1	0.396426
0	8	5	2	0.700458
0	10	1	1	0.390210
0	10	1	2	0.680469
0	10	2	1	0.250135
0	10	2	2	0.292905
0	10	3	1	0.456768
0	10	3	2	0.513825
0	10	4	1	0.250135
0	10	4	2	0.292905
0	10	5	1	0.457136
0	10	5	2	0.902539
0	5	1	1	0.422358
0	5	1	2	0.785344
0	5	2	1	0.248895
0	5	2	2	0.290842
0	5	3	1	0.287219
0	5	3	2	0.355115
0	5	4	1	0.306076
0	5	4	2	0.427793
0	5	5	1	0.559473
0	5	5	2	1.264864
0	4	1	1	0.559473
0	4	1	2	1.264864
0	4	2	1	0.246353
0	4	2	2	0.289331
0	4	3	1	0.269185
0	4	3	2	0.330552
0	4	4	1	0.247702
0	4	4	2	0.293050
0	4	5	1	0.486811
0	4	5	2	1.005161
0	2	1	1	0.396426
0	2	1	2	0.700458
0	2	2	1	0.286163
0	2	2	2	0.374817
0	2	3	1	0.252324
0	2	3	2	0.302739
0	2	4	1	0.272696
0	2	4	2	0.341388
0	2	5	1	0.435957
0	2	5	2	0.830744
0	6	1	1	0.534355
0	6	1	2	1.173866
0	6	2	1	0.282583
0	6	2	2	0.365713
0	6	3	1	0.304119
0	6	3	2	0.375426
0	6	4	1	0.264155
0	6	4	2	0.321560
0	6	5	1	0.415716
0	6	5	2	0.763383
0	9	1	1	0.366437
0	9	1	2	0.605446
0	9	2	1	0.297717
0	9	2	2	0.405114
0	9	3	1	0.254672
0	9	3	2	0.307099
0	9	4	1	0.246353
0	9	4	2	0.289331
0	9	5	1	0.551002
0	9	5	2	1.234039
0	1	1	1	0.576712
0	1	1	2	1.327989
0	1	2	1	0.275847
0	1	2	2	0.348998
0	1	3	1	0.248870
0	1	3	2	0.295725
0	1	4	1	0.282583
0	1	4	2	0.365713
0	1	5	1	0.518107
0	1	5	2	1.115662
3	0	1	1	0.464402
3	0	1	2	0.927456
3	0	2	1	0.257070
3	0	2	2	0.306247
3	0	3	1	0.269185
3	0	3	2	0.330552
3	0	4	1	0.282583
3	0	4	2	0.365713
3	0	5	1	0.384103
3	0	5	2	0.660973
7	0	1	1	0.534355
7	0	1	2	1.173866
7	0	2	1	0.253223
7	0	2	2	0.298561
7	0	3	1	0.280358
7	0	3	2	0.346196
7	0	4	1	0.266846
7	0	4	2	0.327669
7	0	5	1	0.551002
7	0	5	2	1.234039
8	0	1	1	0.429105
8	0	1	2	0.807797
8	0	2	1	0.301833
8	0	2	2	0.416205
8	0	3	1	0.257483
8	0	3	2	0.312044
8	0	4	1	0.297717
8	0	4	2	0.405114
8	0	5	1	0.464402
8	0	5	2	0.927456
10	0	1	1	0.486811
10	0	1	2	1.005161
10	0	2	1	0.266846
10	0	2	2	0.327669
10	0	3	1	0.264683
10	0	3	2	0.323750
10	0	4	1	0.248895
10	0	4	2	0.290842
10	0	5	1	0.449973
10	0	5	2	0.878115
5	0	1	1	0.372215
5	0	1	2	0.623462
5	0	2	1	0.301833
5	0	2	2	0.416205
5	0	3	1	0.257483
5	0	3	2	0.312044
5	0	4	1	0.246504
5	0	4	2	0.287741
5	0	5	1	0.518107
5	0	5	2	1.115662
4	0	1	1	0.422358
4	0	1	2	0.785344
4	0	2	1	0.282583
4	0	2	2	0.365713
4	0	3	1	0.304119
4	0	3	2	0.375426
4	0	4	1	0.261626
4	0	4	2	0.315953
4	0	5	1	0.442913
4	0	5	2	0.854183
2	0	1	1	0.464402
2	0	1	2	0.927456
2	0	2	1	0.286163
2	0	2	2	0.374817
2	0	3	1	0.326472
2	0	3	2	0.399619
2	0	4	1	0.272696
2	0	4	2	0.341388
2	0	5	1	0.409180
2	0	5	2	0.741915
6	0	1	1	0.384103
6	0	1	2	0.660973
6	0	2	1	0.301833
6	0	2	2	0.416205
6	0	3	1	0.274382
6	0	3	2	0.338023
6	0	4	1	0.246187
6	0	4	2	0.287745
6	0	5	1	0.559473
6	0	5	2	1.264864
9	0	1	1	0.551002
9	0	1	2	1.234039
9	0	2	1	0.255055
9	0	2	2	0.302151
9	0	3	1	0.264683
9	0	3	2	0.323750
9	0	4	1	0.247702
9	0	4	2	0.293050
9	0	5	1	0.442913
9	0	5	2	0.854183
1	0	1	1	0.409180
1	0	1	2	0.741915
1	0	2	1	0.261626
1	0	2	2	0.315953
1	0	3	1	0.295088
1	0	3	2	0.364835
1	0	4	1	0.301833
1	0	4	2	0.416205
1	0	5	1	0.435957
1	0	5	2	0.830744
;
